Route #1: 1 9 12 67 12 39 11 66 12 59 1 
Route #2: 1 18 45 25 64 50 25 19 51 26 10 40 13 1 
Route #3: 1 31 49 38 70 37 38 48 22 23 1 
Route #4: 1 52 17 25 24 25 57 25 4 1 
Route #5: 1 68 8 36 54 12 60 12 15 20 28 1 
Route #6: 1 7 34 2 23 62 23 65 23 63 1 
Route #7: 1 41 26 56 26 32 26 33 1 
Route #8: 1 23 44 42 43 23 29 3 69 1 
Route #9: 1 30 6 38 61 21 38 16 58 28 1 
Route #10: 1 5 46 28 55 14 28 53 35 47 27 1 
Cost 1146.0
